words_hard_train/4786.qaiger
aag 94 16 0 1 78
2
4
12
22
30
38
50
58
70
78
94
96
104
108
124
140
188
6 2 4
8 3 5
10 7 9
14 11 12
16 10 13
18 15 17
20 19 2
24 23 2
26 24 15
28 27 17
32 9 30
34 8 31
36 33 35
40 37 38
42 36 39
44 41 43
46 29 44
48 47 43
52 35 50
54 34 51
56 53 55
60 57 58
62 56 59
64 61 63
66 49 64
68 67 63
72 55 70
74 54 71
76 73 75
80 77 78
82 76 79
84 81 83
86 68 85
88 69 84
90 87 89
92 21 91
98 94 96
100 95 97
102 99 101
106 74 105
110 106 109
112 102 110
114 103 111
116 113 115
118 89 83
120 75 104
122 121 107
126 123 124
128 122 125
130 127 129
132 119 130
134 133 129
136 107 108
138 137 111
142 139 140
144 138 141
146 143 145
148 135 146
150 149 145
152 116 151
154 92 153
156 19 22
158 157 25
160 48 65
162 161 67
164 159 163
166 28 45
168 167 47
170 164 169
172 118 131
174 173 133
176 170 175
178 134 147
180 179 149
182 176 181
184 117 150
186 182 185
188 154 186
i0 2 y2[0]
i1 2 y2[1]
i2 1 x1[1]
i3 1 x1[0]
i4 2 y2[2]
i5 1 x1[2]
i6 2 y2[3]
i7 1 x1[3]
i8 2 y2[4]
i9 1 x1[4]
i10 1 x1[7]
i11 2 y2[7]
i12 2 y2[5]
i13 2 y2[6]
i14 1 x1[5]
i15 1 x1[6]
o0 bool[0]
c
simplified
  ==
    add
      invert
        1 x1
      unary minus
        2 y2
    reverse
      1
