words_hard_train/4786.qaiger.qdimacs
p cnf 94 235
a 6 39 70 11 47 19 29 62 0
e 1 2 3 4 5 7 8 9 10 12 13 14 15 16 17 18 20 21 22 23 24 25 26 27 28 30 31 32 33 34 35 36 37 38 40 41 42 43 44 45 46 48 49 50 51 52 53 54 55 56 57 58 59 60 61 63 64 65 66 67 68 69 71 72 73 74 75 76 77 78 79 80 81 82 83 84 85 86 87 88 89 90 91 92 93 94 0
-1 -2 3 0
1 -3 0
2 -3 0
1 2 4 0
-1 -4 0
-2 -4 0
3 4 5 0
-3 -5 0
-4 -5 0
5 -6 7 0
-5 -7 0
6 -7 0
-5 6 8 0
5 -8 0
-6 -8 0
7 8 9 0
-7 -9 0
-8 -9 0
9 -1 10 0
-9 -10 0
1 -10 0
11 -1 12 0
-11 -12 0
1 -12 0
-12 7 13 0
12 -13 0
-7 -13 0
13 8 14 0
-13 -14 0
-8 -14 0
4 -15 16 0
-4 -16 0
15 -16 0
-4 15 17 0
4 -17 0
-15 -17 0
16 17 18 0
-16 -18 0
-17 -18 0
18 -19 20 0
-18 -20 0
19 -20 0
-18 19 21 0
18 -21 0
-19 -21 0
20 21 22 0
-20 -22 0
-21 -22 0
14 -22 23 0
-14 -23 0
22 -23 0
23 21 24 0
-23 -24 0
-21 -24 0
17 -25 26 0
-17 -26 0
25 -26 0
-17 25 27 0
17 -27 0
-25 -27 0
26 27 28 0
-26 -28 0
-27 -28 0
28 -29 30 0
-28 -30 0
29 -30 0
-28 29 31 0
28 -31 0
-29 -31 0
30 31 32 0
-30 -32 0
-31 -32 0
24 -32 33 0
-24 -33 0
32 -33 0
33 31 34 0
-33 -34 0
-31 -34 0
27 -35 36 0
-27 -36 0
35 -36 0
-27 35 37 0
27 -37 0
-35 -37 0
36 37 38 0
-36 -38 0
-37 -38 0
38 -39 40 0
-38 -40 0
39 -40 0
-38 39 41 0
38 -41 0
-39 -41 0
40 41 42 0
-40 -42 0
-41 -42 0
-34 42 43 0
34 -43 0
-42 -43 0
34 -42 44 0
-34 -44 0
42 -44 0
43 44 45 0
-43 -45 0
-44 -45 0
10 45 46 0
-10 -46 0
-45 -46 0
-47 -48 49 0
47 -49 0
48 -49 0
47 48 50 0
-47 -50 0
-48 -50 0
49 50 51 0
-49 -51 0
-50 -51 0
-37 52 53 0
37 -53 0
-52 -53 0
-53 54 55 0
53 -55 0
-54 -55 0
-51 -55 56 0
51 -56 0
55 -56 0
51 55 57 0
-51 -57 0
-55 -57 0
56 57 58 0
-56 -58 0
-57 -58 0
44 41 59 0
-44 -59 0
-41 -59 0
37 -52 60 0
-37 -60 0
52 -60 0
60 53 61 0
-60 -61 0
-53 -61 0
61 -62 63 0
-61 -63 0
62 -63 0
-61 62 64 0
61 -64 0
-62 -64 0
63 64 65 0
-63 -65 0
-64 -65 0
59 -65 66 0
-59 -66 0
65 -66 0
66 64 67 0
-66 -67 0
-64 -67 0
53 -54 68 0
-53 -68 0
54 -68 0
68 55 69 0
-68 -69 0
-55 -69 0
69 -70 71 0
-69 -71 0
70 -71 0
-69 70 72 0
69 -72 0
-70 -72 0
71 72 73 0
-71 -73 0
-72 -73 0
67 -73 74 0
-67 -74 0
73 -74 0
74 72 75 0
-74 -75 0
-72 -75 0
-58 75 76 0
58 -76 0
-75 -76 0
-46 76 77 0
46 -77 0
-76 -77 0
9 -11 78 0
-9 -78 0
11 -78 0
78 12 79 0
-78 -79 0
-12 -79 0
-24 32 80 0
24 -80 0
-32 -80 0
80 33 81 0
-80 -81 0
-33 -81 0
79 81 82 0
-79 -82 0
-81 -82 0
-14 22 83 0
14 -83 0
-22 -83 0
83 23 84 0
-83 -84 0
-23 -84 0
-82 84 85 0
82 -85 0
-84 -85 0
-59 65 86 0
59 -86 0
-65 -86 0
86 66 87 0
-86 -87 0
-66 -87 0
-85 87 88 0
85 -88 0
-87 -88 0
-67 73 89 0
67 -89 0
-73 -89 0
89 74 90 0
-89 -90 0
-74 -90 0
-88 90 91 0
88 -91 0
-90 -91 0
58 -75 92 0
-58 -92 0
75 -92 0
-91 92 93 0
91 -93 0
-92 -93 0
-77 -93 94 0
77 -94 0
93 -94 0
94 0
